p tw 50 384
e 0 7
e 0 12
e 0 14
e 0 17
e 0 18
e 0 19
e 0 22
e 0 24
e 0 26
e 0 27
e 0 29
e 0 30
e 0 33
e 0 37
e 0 42
e 0 44
e 0 45
e 0 46
e 0 49
e 1 10
e 1 12
e 1 15
e 1 19
e 1 20
e 1 21
e 1 23
e 1 31
e 1 35
e 1 37
e 1 46
e 1 47
e 1 48
e 2 4
e 2 5
e 2 9
e 2 14
e 2 16
e 2 19
e 2 24
e 2 26
e 2 28
e 2 37
e 2 39
e 2 46
e 2 47
e 3 12
e 3 16
e 3 20
e 3 22
e 3 40
e 3 47
e 4 11
e 4 12
e 4 15
e 4 18
e 4 20
e 4 21
e 4 22
e 4 24
e 4 25
e 4 26
e 4 31
e 4 33
e 4 35
e 4 37
e 4 40
e 4 42
e 5 8
e 5 16
e 5 17
e 5 20
e 5 25
e 5 26
e 5 32
e 5 39
e 5 41
e 5 44
e 5 47
e 5 49
e 6 9
e 6 10
e 6 11
e 6 13
e 6 19
e 6 24
e 6 30
e 6 31
e 6 36
e 6 47
e 6 48
e 7 8
e 7 12
e 7 15
e 7 20
e 7 23
e 7 24
e 7 28
e 7 33
e 7 35
e 7 39
e 7 40
e 7 42
e 7 45
e 7 47
e 7 48
e 8 9
e 8 10
e 8 14
e 8 21
e 8 23
e 8 29
e 8 31
e 8 34
e 8 35
e 8 38
e 8 41
e 8 43
e 8 44
e 8 46
e 9 11
e 9 13
e 9 14
e 9 17
e 9 18
e 9 22
e 9 25
e 9 30
e 9 41
e 9 42
e 9 43
e 9 44
e 9 48
e 10 15
e 10 16
e 10 17
e 10 21
e 10 22
e 10 23
e 10 24
e 10 25
e 10 26
e 10 28
e 10 36
e 10 38
e 10 41
e 10 42
e 10 43
e 10 44
e 10 45
e 11 13
e 11 16
e 11 17
e 11 23
e 11 24
e 11 27
e 11 32
e 11 33
e 11 37
e 11 38
e 11 39
e 11 41
e 11 42
e 11 45
e 11 46
e 11 48
e 12 15
e 12 17
e 12 22
e 12 23
e 12 34
e 12 35
e 12 37
e 12 41
e 12 42
e 12 43
e 12 44
e 12 47
e 12 48
e 13 14
e 13 15
e 13 16
e 13 18
e 13 33
e 13 36
e 13 37
e 13 38
e 13 39
e 13 41
e 13 42
e 13 45
e 13 46
e 13 47
e 14 17
e 14 21
e 14 25
e 14 27
e 14 32
e 14 43
e 14 46
e 14 48
e 15 19
e 15 20
e 15 21
e 15 25
e 15 27
e 15 33
e 15 36
e 15 37
e 15 38
e 15 41
e 15 49
e 16 19
e 16 22
e 16 39
e 16 40
e 16 41
e 16 48
e 17 18
e 17 27
e 17 30
e 17 34
e 17 36
e 17 42
e 17 48
e 18 19
e 18 22
e 18 25
e 18 26
e 18 36
e 18 39
e 18 40
e 18 41
e 18 44
e 18 45
e 19 20
e 19 28
e 19 32
e 19 33
e 19 34
e 19 35
e 19 36
e 19 38
e 19 48
e 19 49
e 20 21
e 20 22
e 20 27
e 20 31
e 20 38
e 20 41
e 20 42
e 20 48
e 21 25
e 21 29
e 21 31
e 21 33
e 21 34
e 21 35
e 21 41
e 21 44
e 21 47
e 21 48
e 22 25
e 22 26
e 22 30
e 22 31
e 22 35
e 22 43
e 22 44
e 23 28
e 23 33
e 23 35
e 23 37
e 23 39
e 23 40
e 23 42
e 23 46
e 23 47
e 24 26
e 24 27
e 24 30
e 24 31
e 24 33
e 24 37
e 24 41
e 24 42
e 24 49
e 25 27
e 25 30
e 25 33
e 25 39
e 25 41
e 25 44
e 25 45
e 26 33
e 26 35
e 26 41
e 26 44
e 26 48
e 27 28
e 27 29
e 27 31
e 27 33
e 27 34
e 27 37
e 27 42
e 27 43
e 27 47
e 27 48
e 27 49
e 28 31
e 28 32
e 28 36
e 28 38
e 28 42
e 28 44
e 28 45
e 28 47
e 28 48
e 29 33
e 29 36
e 29 38
e 29 39
e 29 40
e 29 45
e 29 46
e 29 47
e 29 49
e 30 31
e 30 33
e 30 37
e 30 38
e 30 44
e 30 45
e 31 36
e 31 37
e 31 38
e 31 41
e 31 45
e 31 48
e 32 35
e 32 40
e 32 43
e 32 44
e 32 48
e 33 34
e 33 39
e 33 41
e 33 42
e 33 44
e 33 45
e 34 35
e 34 37
e 34 39
e 34 43
e 34 47
e 35 42
e 35 43
e 36 37
e 36 39
e 36 43
e 36 44
e 36 47
e 36 49
e 37 38
e 37 39
e 37 43
e 37 45
e 37 47
e 37 49
e 38 40
e 38 48
e 39 41
e 39 45
e 39 49
e 41 46
e 41 48
e 42 45
e 42 48
e 42 49
e 43 46
e 44 46
e 44 47
e 44 48
